/*********************************************
 * OPL 12.9.0.0 Data
 * Author: jfb2444
 * Creation Date: Aug 22, 2020 at 11:56:47 AM
 *********************************************/

 n = 8;							
 visNorth	= [2,-1,1,-1,3,3,-1,5]; 	
 visSouth 	= [-1,4,-1,-1,3,3,-1,-1]; 	
 visWest	= [2,-1,3,-1,3,-1,-1,2]; 	
 visEast	= [5,-1,3,2,2,1,3,-1]; 	
 cellClue 	= [	[-1,-1,-1,-1,-1,2,-1,-1],
 				[-1,-1,-1,2,-1,-1,7,-1],
 				[-1,-1,-1,1,-1,-1,-1,-1],
 				[-1,5,-1,-1,1,-1,-1,-1],
 				[-1,-1,-1,-1,-1,3,-1,-1],
 				[3,-1,-1,-1,-1,-1,-1,-1],
 				[2,-1,6,-1,-1,-1,-1,-1],
 				[-1,-1,-1,-1,-1,-1,-1,-1] ]; 	